(set-logic HORN)
(declare-fun rec_array_compare_left@pre ((Array Int Int) Int (Array Int Int) Int Int Int Int ) Bool)
(declare-fun rec_array_compare_left@summary ((Array Int Int) Int (Array Int Int) Int Int Int Int Bool ) Bool)
(declare-fun rec_array_compare_right@pre ((Array Int Int) Int (Array Int Int) Int Int Int Int ) Bool)
(declare-fun rec_array_compare_right@summary ((Array Int Int) Int (Array Int Int) Int Int Int Int Bool ) Bool)
(assert (forall ((array1@0 (Array Int Int))(.array1!size@0 Int)(array2@0 (Array Int Int))(.array2!size@0 Int)(N@0 Int)(i@0 Int)(j@0 Int)(!return@0 Bool)) (=> (and (rec_array_compare_left@pre |array1@0| |.array1!size@0| |array2@0| |.array2!size@0| |i@0| |j@0| |N@0|) (not (= (select |array1@0| |i@0|) (select |array2@0| |i@0|))) (= |!return@0| false) (<= |i@0| |j@0|) (< |i@0| |N@0|) (> |j@0| 0)) (rec_array_compare_left@summary |array1@0| |.array1!size@0| |array2@0| |.array2!size@0| |i@0| |j@0| |N@0| |!return@0|))))
(assert (forall ((array1@0 (Array Int Int))(.array1!size@0 Int)(array2@0 (Array Int Int))(.array2!size@0 Int)(i@0 Int)(j@0 Int)(N@0 Int)(!return@0 Bool)) (=> (and (rec_array_compare_right@pre |array1@0| |.array1!size@0| |array2@0| |.array2!size@0| |i@0| |j@0| |N@0|) (not (= (select |array1@0| (- |j@0| 1)) (select |array2@0| (- |j@0| 1)))) (= |!return@0| false) (<= |i@0| |j@0|) (< |i@0| |N@0|) (> |j@0| 0)) (rec_array_compare_right@summary |array1@0| |.array1!size@0| |array2@0| |.array2!size@0| |i@0| |j@0| |N@0| |!return@0|))))
(assert (forall ((array1@0 (Array Int Int))(.array1!size@0 Int)(array2@0 (Array Int Int))(.array2!size@0 Int)(i@0 Int)(j@0 Int)(N@0 Int)(!return@0 Bool)) (=> (and (rec_array_compare_left@pre |array1@0| |.array1!size@0| |array2@0| |.array2!size@0| |i@0| |j@0| |N@0|) (not (= (select |array1@0| |i@0|) (select |array2@0| |i@0|))) (= |!return@0| false) (<= |i@0| |j@0|) (< |i@0| |N@0|) (> |j@0| 0)) (rec_array_compare_left@summary |array1@0| |.array1!size@0| |array2@0| |.array2!size@0| |i@0| |j@0| |N@0| |!return@0|))))
(assert (forall ((N@0 Int)(array1@0 (Array Int Int))(array2@0 (Array Int Int))) (=> (> |N@0| 0) (rec_array_compare_left@pre |array1@0| |N@0| |array2@0| |N@0| 0 |N@0| |N@0|))))
(assert (forall ((N@0 Int)(array1@0 (Array Int Int))(array2@0 (Array Int Int))(equal@0 Bool)(!rtrnd3 Bool)) (=> (and (rec_array_compare_left@summary |array1@0| |N@0| |array2@0| |N@0| 0 |N@0| |N@0| !rtrnd3) (rec_array_compare_left@pre |array1@0| |N@0| |array2@0| |N@0| 0 |N@0| |N@0|) (> |N@0| 0) (= |equal@0| !rtrnd3) (= |equal@0| true) (not (forall ((k@0 Int)) (=> (and (<= 0 |k@0|) (< |k@0| |N@0|)) (= (select |array1@0| |k@0|) (select |array2@0| |k@0|)))))) false)))
(assert (forall ((array1@0 (Array Int Int))(.array1!size@0 Int)(array2@0 (Array Int Int))(.array2!size@0 Int)(i@0 Int)(j@0 Int)(N@0 Int)) (=> (and (rec_array_compare_right@pre |array1@0| |.array1!size@0| |array2@0| |.array2!size@0| |i@0| |j@0| |N@0|) (not (not (= (select |array1@0| (- |j@0| 1)) (select |array2@0| (- |j@0| 1))))) (<= |i@0| |j@0|) (< |i@0| |N@0|) (> |j@0| 0)) (rec_array_compare_left@pre |array1@0| |.array1!size@0| |array2@0| |.array2!size@0| |i@0| (- |j@0| 1) |N@0|))))
(assert (forall ((array1@0 (Array Int Int))(.array1!size@0 Int)(array2@0 (Array Int Int))(.array2!size@0 Int)(i@0 Int)(j@0 Int)(N@0 Int)(!return@0 Bool)(!rtrnd1 Bool)) (=> (and (rec_array_compare_right@pre |array1@0| |.array1!size@0| |array2@0| |.array2!size@0| |i@0| |j@0| |N@0|) (rec_array_compare_left@summary |array1@0| |.array1!size@0| |array2@0| |.array2!size@0| |i@0| (- |j@0| 1) |N@0| !rtrnd1) (rec_array_compare_left@pre |array1@0| |.array1!size@0| |array2@0| |.array2!size@0| |i@0| (- |j@0| 1) |N@0|) (= |!return@0| !rtrnd1) (not (not (= (select |array1@0| (- |j@0| 1)) (select |array2@0| (- |j@0| 1))))) (<= |i@0| |j@0|) (< |i@0| |N@0|) (> |j@0| 0)) (rec_array_compare_right@summary |array1@0| |.array1!size@0| |array2@0| |.array2!size@0| |i@0| |j@0| |N@0| |!return@0|))))
(assert (forall ((array1@0 (Array Int Int))(.array1!size@0 Int)(array2@0 (Array Int Int))(.array2!size@0 Int)(i@0 Int)(j@0 Int)(N@0 Int)) (=> (and (rec_array_compare_left@pre |array1@0| |.array1!size@0| |array2@0| |.array2!size@0| |i@0| |j@0| |N@0|) (not (not (= (select |array1@0| |i@0|) (select |array2@0| |i@0|)))) (<= |i@0| |j@0|) (< |i@0| |N@0|) (> |j@0| 0)) (rec_array_compare_right@pre |array1@0| |.array1!size@0| |array2@0| |.array2!size@0| (+ |i@0| 1) |j@0| |N@0|))))
(assert (forall ((array1@0 (Array Int Int))(.array1!size@0 Int)(array2@0 (Array Int Int))(.array2!size@0 Int)(i@0 Int)(j@0 Int)(N@0 Int)(!return@0 Bool)(!rtrnd0 Bool)) (=> (and (rec_array_compare_left@pre |array1@0| |.array1!size@0| |array2@0| |.array2!size@0| |i@0| |j@0| |N@0|) (rec_array_compare_right@summary |array1@0| |.array1!size@0| |array2@0| |.array2!size@0| (+ |i@0| 1) |j@0| |N@0| !rtrnd0) (rec_array_compare_right@pre |array1@0| |.array1!size@0| |array2@0| |.array2!size@0| (+ |i@0| 1) |j@0| |N@0|) (= |!return@0| !rtrnd0) (not (not (= (select |array1@0| |i@0|) (select |array2@0| |i@0|)))) (<= |i@0| |j@0|) (< |i@0| |N@0|) (> |j@0| 0)) (rec_array_compare_left@summary |array1@0| |.array1!size@0| |array2@0| |.array2!size@0| |i@0| |j@0| |N@0| |!return@0|))))
(assert (forall ((array1@0 (Array Int Int))(.array1!size@0 Int)(array2@0 (Array Int Int))(.array2!size@0 Int)(i@0 Int)(j@0 Int)(N@0 Int)(!return@0 Bool)) (=> (and (rec_array_compare_right@pre |array1@0| |.array1!size@0| |array2@0| |.array2!size@0| |i@0| |j@0| |N@0|) (= |!return@0| true) (not (and (<= |i@0| |j@0|) (< |i@0| |N@0|) (> |j@0| 0)))) (rec_array_compare_right@summary |array1@0| |.array1!size@0| |array2@0| |.array2!size@0| |i@0| |j@0| |N@0| |!return@0|))))
(assert (forall ((array1@0 (Array Int Int))(.array1!size@0 Int)(array2@0 (Array Int Int))(.array2!size@0 Int)(i@0 Int)(j@0 Int)(N@0 Int)(!return@0 Bool)(!rtrnd2 Bool)) (=> (and (rec_array_compare_left@pre |array1@0| |.array1!size@0| |array2@0| |.array2!size@0| |i@0| |j@0| |N@0|) (rec_array_compare_right@summary |array1@0| |.array1!size@0| |array2@0| |.array2!size@0| (+ |i@0| 1) |j@0| |N@0| !rtrnd2) (rec_array_compare_right@pre |array1@0| |.array1!size@0| |array2@0| |.array2!size@0| (+ |i@0| 1) |j@0| |N@0|) (= |!return@0| !rtrnd2) (not (not (= (select |array1@0| |i@0|) (select |array2@0| |i@0|)))) (<= |i@0| |j@0|) (< |i@0| |N@0|) (> |j@0| 0)) (rec_array_compare_left@summary |array1@0| |.array1!size@0| |array2@0| |.array2!size@0| |i@0| |j@0| |N@0| |!return@0|))))
(assert (forall ((array1@0 (Array Int Int))(.array1!size@0 Int)(array2@0 (Array Int Int))(.array2!size@0 Int)(i@0 Int)(j@0 Int)(N@0 Int)) (=> (and (rec_array_compare_left@pre |array1@0| |.array1!size@0| |array2@0| |.array2!size@0| |i@0| |j@0| |N@0|) (not (not (= (select |array1@0| |i@0|) (select |array2@0| |i@0|)))) (<= |i@0| |j@0|) (< |i@0| |N@0|) (> |j@0| 0)) (rec_array_compare_right@pre |array1@0| |.array1!size@0| |array2@0| |.array2!size@0| (+ |i@0| 1) |j@0| |N@0|))))
(assert (forall ((array1@0 (Array Int Int))(.array1!size@0 Int)(array2@0 (Array Int Int))(.array2!size@0 Int)(i@0 Int)(j@0 Int)(N@0 Int)(!return@0 Bool)) (=> (and (rec_array_compare_left@pre |array1@0| |.array1!size@0| |array2@0| |.array2!size@0| |i@0| |j@0| |N@0|) (= |!return@0| true) (not (and (<= |i@0| |j@0|) (< |i@0| |N@0|) (> |j@0| 0)))) (rec_array_compare_left@summary |array1@0| |.array1!size@0| |array2@0| |.array2!size@0| |i@0| |j@0| |N@0| |!return@0|))))
(assert (forall ((array1@0 (Array Int Int))(.array1!size@0 Int)(array2@0 (Array Int Int))(.array2!size@0 Int)(i@0 Int)(j@0 Int)(N@0 Int)(!return@0 Bool)) (=> (and (rec_array_compare_left@pre |array1@0| |.array1!size@0| |array2@0| |.array2!size@0| |i@0| |j@0| |N@0|) (= |!return@0| true) (not (and (<= |i@0| |j@0|) (< |i@0| |N@0|) (> |j@0| 0)))) (rec_array_compare_left@summary |array1@0| |.array1!size@0| |array2@0| |.array2!size@0| |i@0| |j@0| |N@0| |!return@0|))))
(check-sat)